peakDumbCharging = 11100; 
Machine = anon_enum(16); 
machineSpeed = [3700,3700,3700,3700,3700,3700,3700,3700,3700,3700,3700,3700,3700,3700,3700,3700]; 
machineLoad = [3700,3700,3700,3700,3700,3700,3700,3700,3700,3700,3700,3700,3700,3700,3700,3700]; 
Car = anon_enum(8); 
demandCar = [34760,5160,7000,29800,9240,8400,2680,56000]; 
arrivalCar = [71,70,68,67,52,46,46,38]; 
departureCar = [82,73,71,79,59,50,49,61]; 
